20	5
0	1	1
1	1	12
2	2	13	14
3	2	18	4
4	0
5	1	10
6	1	3
7	1	8
8	0
9	1	16
10	2	20	9
11	1	6
12	1	7
13	1	21
14	1	21
15	1	21
16	1	21
17	1	21
18	1	21
19	1	21
20	1	21
21	0
0	0	0	0	0	0	0
1	8	0	0	2	5	0
2	5	3	1	0	1	0
3	10	4	3	0	0	5
4	4	1	0	1	2	0
5	8	0	0	0	0	5
6	6	0	1	2	0	5
7	5	0	0	0	4	0
8	8	3	0	0	2	0
9	6	0	0	3	0	1
10	8	3	2	2	0	4
11	8	1	0	0	4	0
12	3	5	4	2	3	4
13	1	0	0	0	0	3
14	7	0	0	0	5	0
15	1	3	0	1	0	5
16	1	0	0	3	1	0
17	8	0	4	1	0	4
18	6	0	3	2	0	3
19	6	4	0	1	3	0
20	2	1	0	0	2	1
21	0	0	0	0	0	0
5	4	4	5	5
